NAME : swiss42-C-5-1-a.1434.tour
COMMENT : Length = 1434
COMMENT : Found by LKH-3 [Keld Helsgaun] Tue Jul 30 13:14:05 2024
TYPE : TOUR
DIMENSION : 42
TOUR_SECTION
1
2
32
37
36
21
34
35
33
29
3
28
4
5
7
6
27
19
13
12
26
11
9
10
42
24
41
25
22
40
23
39
31
30
14
20
15
17
16
38
18
8
-1
EOF
